15
1 0 10
2 0 7
2 1 2
3 0 4
3 1 8
3 2 10
4 0 7
4 1 10
4 2 1
4 3 9
5 0 8
5 1 8
5 2 8
5 3 2
5 4 6
6 0 10
6 1 1
6 2 10
6 3 2
6 4 2
6 5 4
7 0 8
7 1 3
7 2 6
7 3 4
7 4 3
7 5 2
7 6 8
8 0 4
8 1 2
8 2 7
8 3 1
8 4 7
8 5 6
8 6 10
8 7 2
9 0 9
9 1 8
9 2 7
9 3 9
9 4 4
9 5 6
9 6 6
9 7 9
9 8 3
10 0 1
10 1 1
10 2 4
10 3 1
10 4 1
10 5 6
10 6 10
10 7 9
10 8 7
10 9 3
11 0 10
11 1 3
11 2 3
11 3 9
11 4 10
11 5 1
11 6 5
11 7 4
11 8 10
11 9 3
11 10 7
12 0 3
12 1 7
12 2 2
12 3 8
12 4 1
12 5 5
12 6 7
12 7 3
12 8 1
12 9 2
12 10 10
12 11 10
13 0 1
13 1 8
13 2 3
13 3 8
13 4 8
13 5 1
13 6 1
13 7 10
13 8 9
13 9 5
13 10 8
13 11 4
13 12 10
14 0 9
14 1 10
14 2 4
14 3 8
14 4 5
14 5 8
14 6 8
14 7 5
14 8 6
14 9 2
14 10 9
14 11 4
14 12 6
14 13 5
